p cnf 214 380
1 -2 0
1 -3 0
2 3 -1 0
4 -1 0
1 -4 0
5 -6 0
5 -7 0
6 7 -5 0
3 -5 0
-3 5 0
8 -9 0
8 -10 0
9 10 -8 0
7 -8 0
-7 8 0
11 -12 0
11 -13 0
12 13 -11 0
10 -11 0
-10 11 0
14 -15 0
14 -16 0
15 16 -14 0
13 -14 0
-13 14 0
17 -18 0
17 -19 0
18 19 -17 0
16 -17 0
-16 17 0
20 -21 0
20 -22 0
21 22 -20 0
19 -20 0
-19 20 0
23 -24 0
23 -25 0
24 25 -23 0
22 -23 0
-22 23 0
26 -27 0
26 -28 0
27 28 -26 0
25 -26 0
-25 26 0
29 -30 0
29 -31 0
30 31 -29 0
28 -29 0
-28 29 0
32 -33 0
-18 32 0
-21 32 0
-24 32 0
-27 32 0
-30 32 0
33 18 21 24 27 30 -32 0
31 -32 0
-31 32 0
34 -35 0
34 -36 0
35 36 -34 0
37 -34 0
34 -37 0
38 -39 0
38 -40 0
39 40 -38 0
36 -38 0
-36 38 0
41 -42 0
41 -43 0
42 43 -41 0
40 -41 0
-40 41 0
44 -45 0
44 -46 0
45 46 -44 0
43 -44 0
-43 44 0
47 -48 0
47 -49 0
48 49 -47 0
46 -47 0
-46 47 0
50 -51 0
50 -52 0
51 52 -50 0
49 -50 0
-49 50 0
53 -54 0
53 -55 0
54 55 -53 0
52 -53 0
-52 53 0
-45 56 0
-48 56 0
-51 56 0
-54 56 0
56 -57 0
45 48 51 54 57 -56 0
55 -56 0
-55 56 0
58 -59 0
58 -60 0
59 60 -58 0
61 -58 0
58 -61 0
62 -63 0
62 -64 0
63 64 -62 0
60 -62 0
-60 62 0
65 -66 0
65 -67 0
66 67 -65 0
64 -65 0
-64 65 0
68 -69 0
68 -70 0
69 70 -68 0
67 -68 0
-67 68 0
71 -72 0
71 -73 0
72 73 -71 0
70 -71 0
-70 71 0
74 -75 0
74 -76 0
75 76 -74 0
73 -74 0
-73 74 0
77 -78 0
77 -79 0
78 79 -77 0
76 -77 0
-76 77 0
80 -81 0
80 -82 0
81 82 -80 0
79 -80 0
-79 80 0
83 -84 0
83 -85 0
84 85 -83 0
82 -83 0
-82 83 0
86 -87 0
86 -88 0
87 88 -86 0
85 -86 0
-85 86 0
-75 89 0
-78 89 0
-81 89 0
-84 89 0
-87 89 0
89 -90 0
91 0
88 -89 0
-88 89 0
92 -93 0
92 -94 0
93 94 -92 0
95 -92 0
92 -95 0
96 -97 0
96 -98 0
97 98 -96 0
94 -96 0
-94 96 0
99 -100 0
99 -101 0
100 101 -99 0
98 -99 0
-98 99 0
-70 102 0
102 -103 0
70 103 -102 0
101 -102 0
-101 102 0
104 -105 0
104 -106 0
105 106 -104 0
107 -104 0
104 -107 0
108 -109 0
108 -110 0
109 110 -108 0
106 -108 0
-106 108 0
111 -112 0
111 -113 0
112 113 -111 0
110 -111 0
-110 111 0
-55 114 0
114 -115 0
55 115 -114 0
113 -114 0
-113 114 0
116 -117 0
116 -118 0
117 118 -116 0
119 -116 0
116 -119 0
120 -121 0
120 -122 0
121 122 -120 0
118 -120 0
-118 120 0
123 -124 0
-125 123 0
124 125 -123 0
122 -123 0
-122 123 0
125 -126 0
126 -125 0
127 -128 0
127 -129 0
128 129 -127 0
130 -127 0
127 -130 0
131 -132 0
131 -133 0
132 133 -131 0
129 -131 0
-129 131 0
134 -135 0
134 -136 0
135 136 -134 0
133 -134 0
-133 134 0
-52 137 0
137 -138 0
52 138 -137 0
136 -137 0
-136 137 0
139 -140 0
139 -141 0
140 141 -139 0
142 -139 0
139 -142 0
143 -144 0
143 -145 0
144 145 -143 0
141 -143 0
-141 143 0
146 -147 0
146 -148 0
147 148 -146 0
145 -146 0
-145 146 0
149 -150 0
149 -151 0
150 151 -149 0
148 -149 0
-148 149 0
152 -153 0
152 -154 0
153 154 -152 0
151 -152 0
-151 152 0
155 -156 0
155 -157 0
156 157 -155 0
154 -155 0
-154 155 0
158 -159 0
158 -160 0
159 160 -158 0
157 -158 0
-157 158 0
161 -162 0
161 -163 0
162 163 -161 0
160 -161 0
-160 161 0
164 -165 0
164 -166 0
165 166 -164 0
163 -164 0
-163 164 0
-159 167 0
-162 167 0
-165 167 0
167 -168 0
159 162 165 168 -167 0
166 -167 0
-166 167 0
169 -170 0
169 -171 0
170 171 -169 0
172 -169 0
169 -172 0
173 -174 0
173 -175 0
174 175 -173 0
171 -173 0
-171 173 0
176 -177 0
176 -178 0
177 178 -176 0
175 -176 0
-175 176 0
179 -180 0
179 -181 0
180 181 -179 0
178 -179 0
-178 179 0
182 -183 0
182 -184 0
183 184 -182 0
181 -182 0
-181 182 0
185 -186 0
185 -187 0
186 187 -185 0
184 -185 0
-184 185 0
188 -189 0
188 -190 0
189 190 -188 0
187 -188 0
-187 188 0
191 -192 0
191 -193 0
192 193 -191 0
190 -191 0
-190 191 0
194 -195 0
194 -196 0
195 196 -194 0
193 -194 0
-193 194 0
197 -198 0
197 -199 0
198 199 -197 0
196 -197 0
-196 197 0
-186 200 0
-189 200 0
-192 200 0
-195 200 0
-198 200 0
200 -201 0
202 0
199 -200 0
-199 200 0
203 -204 0
203 -205 0
204 205 -203 0
206 -203 0
203 -206 0
207 -208 0
207 -209 0
208 209 -207 0
205 -207 0
-205 207 0
210 -211 0
210 -212 0
211 212 -210 0
209 -210 0
-209 210 0
-163 213 0
213 -214 0
163 214 -213 0
212 -213 0
-212 213 0
4 0
37 0
61 0
95 0
107 0
119 0
-125 0
130 0
142 0
172 0
206 0
